NAME : tsp_81_sol.txt
COMMENT : OR-Tools Guided Local Search
TYPE : TOUR
DIMENSION : 50
COST : 5617
STATUS : ROUTING_SUCCESS
GAP : 0.00% (Reference Solution)
TOUR_SECTION
1
9
25
8
50
12
2
49
30
18
39
47
23
28
33
29
7
46
16
14
24
32
44
45
41
21
13
3
20
26
42
10
17
37
19
38
27
22
15
34
4
31
5
35
6
40
48
36
43
11
-1
